\ENCODING=ISO-8859-1
\Problem name: IloCplex

Maximize
 obj: 3.16666666666667 x1 + x2 + 3.17391304347826 x4 - x5 + 2.95454545454545 x6
      - 0.5 x7 + 2.91304347826087 x8 - 3 x9 + 2.95454545454545 x10 - 0.5 x11
      + 2.91304347826087 x12 - 3 x13 + 2.52631578947368 x14 + 0.8 x15
      + 2.47368421052632 x16 + 0.2 x17 + 2.44444444444444 x18
      + 2.54545454545455 x20 - 2 x21 + 2.52631578947368 x22 + 0.8 x23
      + 2.23529411764706 x24 + 2 x25 + 1.5625 x26 + 0.875 x27
      + 1.70588235294118 x28 - 0.714285714285714 x29 + 1.89473684210526 x30
      - 1.6 x31 + 1.33333333333333 x32 - 0.666666666666667 x33
      + 1.78947368421053 x34 - 1.2 x35 + 2 x36 + 1.5 x37 + 1.27777777777778 x38
      - 1.16666666666667 x39 + 1.61111111111111 x40 - 0.833333333333333 x41
      + 1.47058823529412 x42 - 0.142857142857143 x43 + 2.54545454545455 x44
      + 3.07692307692308 x45 + 2.22727272727273 x46 - 4.5 x47
      + 1.10526315789474 x48 - x49 + 2.72222222222222 x50
      + 1.16666666666667 x51 + 1.36842105263158 x52 - 2.8 x53
      + 1.55555555555556 x54 - 1.33333333333333 x55 + 1.53333333333333 x56
      + 1.88888888888889 x57 + 1.46666666666667 x58 + 1.55555555555556 x59
      + 1.47368421052632 x60 - 1.6 x61 + 0.764705882352941 x62
      - 1.85714285714286 x63 + 0.947368421052632 x64 - 2.8 x65
      + 1.21052631578947 x66 - 3 x67 + 0.857142857142857 x68 + 1.6 x69
      + 1.55555555555556 x70 - 1.33333333333333 x71 + 1.77777777777778 x72
      + 2.93333333333333 x73 + 2.47619047619048 x74 - 2.66666666666667 x75
      + 1.41176470588235 x76 + 0.571428571428571 x77 + 2.38888888888889 x78
      + 0.833333333333333 x79 + 2.41176470588235 x80 + 2.14285714285714 x81
      + x82 - 2.2 x83 + 1.93333333333333 x84 + 2.11111111111111 x85
      + 2.44444444444444 x86 + 2.23529411764706 x88 + 0.857142857142857 x89
      + x90 + 1.4 x91 + 1.875 x92 + 1.75 x93 + 2.08333333333333 x94
      + 2.58333333333333 x95 + 1.95 x96 - 1.75 x97 + 1.95238095238095 x98
      - 3 x99 + 1.3125 x100 + 1.375 x101 + 1.72222222222222 x102
      + 0.166666666666667 x103 + 2.0952380952381 x104 - 2.66666666666667 x105
      + 2.31578947368421 x106 + 2.63636363636364 x108 + 2.07692307692308 x109
      + 2.44444444444444 x110 + 1.33333333333333 x111 + 1.06666666666667 x112
      + 1.33333333333333 x113 + 2.17647058823529 x114 + 1.57142857142857 x115
      + 2.08333333333333 x116 + 2.58333333333333 x117 + 2.2 x118
      + 1.66666666666667 x119 + 2.77777777777778 x120 + 2.6 x121 + 2.75 x122
      + 3.05 x123 + 2.07692307692308 x124 + 2.63636363636364 x125
      + 2.66666666666667 x126 - 1.33333333333333 x127 + 2.63636363636364 x128
      - 3 x129 + 1.61111111111111 x130 + 0.5 x131 + 1.65 x132 - 2.25 x133
      + 2.55 x134 - 0.75 x135 + 2 x136 + 2.4 x137 + 2.5 x138 - 3.5 x139
      + 1.75 x140 + 2 x141 + 1.8 x142 + 2.33333333333333 x143 + 2.6 x144
      + 3 x145 + 2.91304347826087 x146 - 3 x147 + 2.38095238095238 x148
      - 2 x149 + 1.82352941176471 x150 + 1.28571428571429 x151
      + 3.16666666666667 x152 + 2.09090909090909 x154 + 2.53846153846154 x155
      + 2.08333333333333 x156 + 2.58333333333333 x157 + 2.91304347826087 x158
      - 3 x159 + 2.75 x160 + 3.05 x161 + 2.91304347826087 x162 - 3 x163
      + 3.16666666666667 x164 + 3.16666666666667 x166 + 2.77777777777778 x168
      + 2.6 x169 + 2.77777777777778 x170 + 2.6 x171
Subject To
 c1:  x1 + x5 + x7 + x8 + x10 + x12 + x15 + x17 + x19 + x20 + x23 + x24 + x27
      + x29 + x30 + x32 + x35 + x36 + x39 + x41 + x43 + x45 + x46 + x48 + x51
      + x52 + x54 + x56 + x58 + x61 + x63 + x65 + x66 + x68 + x70 + x73 + x74
      + x76 + x78 + x80 + x82 + x85 + x87 + x88 + x90 + x92 + x95 + x96 + x98
      + x100 + x102 + x104 + x107 + x109 + x110 + x112 + x114 + x117 + x119
      + x120 + x123 + x125 + x127 + x128 + x130 + x132 + x135 + x137 + x138
      + x140 + x142 + x145 + x146 + x148 + x150 + x152 + x155 + x157 + x158
      + x161 + x162 + x164 + x166 + x168 + x170  = 1
 c2:  x1 + x4 + x7 + x8 + x10 + x12 + x15 + x17 + x19 + x20 + x23 + x24 + x27
      + x28 + x31 + x33 + x34 + x37 + x38 + x41 + x42 + x45 + x46 + x48 + x50
      + x53 + x54 + x57 + x58 + x60 + x62 + x64 + x66 + x68 + x70 + x73 + x74
      + x77 + x78 + x80 + x83 + x85 + x87 + x89 + x91 + x93 + x95 + x97 + x99
      + x101 + x103 + x105 + x107 + x109 + x111 + x113 + x115 + x117 + x119
      + x120 + x123 + x125 + x127 + x128 + x131 + x133 + x135 + x137 + x139
      + x141 + x143 + x145 + x146 + x149 + x151 + x152 + x155 + x157 + x158
      + x161 + x162 + x164 + x166 + x168 + x170  = 1
 c3:  x1 + x4 + x6 + x9 + x11 + x12 + x15 + x16 + x19 + x20 + x22 + x25 + x27
      + x28 + x31 + x32 + x35 + x37 + x38 + x40 + x42 + x45 + x46 + x48 + x50
      + x52 + x54 + x56 + x58 + x61 + x62 + x64 + x67 + x69 + x71 + x73 + x74
      + x76 + x78 + x81 + x82 + x84 + x87 + x88 + x91 + x93 + x95 + x96 + x98
      + x101 + x102 + x104 + x106 + x108 + x110 + x112 + x114 + x116 + x118
      + x120 + x123 + x124 + x126 + x128 + x130 + x132 + x134 + x136 + x138
      + x140 + x142 + x145 + x146 + x148 + x150 + x152 + x154 + x156 + x158
      + x161 + x162 + x164 + x166 + x168 + x170  = 1
 c4:  x1 + x4 + x6 + x8 + x11 + x12 + x14 + x17 + x19 + x20 + x22 + x25 + x27
      + x29 + x31 + x32 + x34 + x36 + x38 + x40 + x43 + x45 + x46 + x48 + x50
      + x53 + x54 + x57 + x58 + x60 + x62 + x64 + x67 + x68 + x71 + x73 + x75
      + x77 + x78 + x81 + x82 + x84 + x87 + x89 + x91 + x92 + x95 + x96 + x98
      + x100 + x102 + x104 + x106 + x108 + x110 + x112 + x114 + x117 + x118
      + x120 + x123 + x124 + x126 + x128 + x130 + x132 + x134 + x136 + x138
      + x140 + x142 + x145 + x146 + x148 + x150 + x152 + x155 + x156 + x158
      + x161 + x162 + x164 + x166 + x168 + x170  = 1
 c5:  x1 + x4 + x6 + x8 + x10 + x13 + x15 + x17 + x19 + x20 + x22 + x25 + x26
      + x29 + x30 + x33 + x34 + x37 + x38 + x41 + x42 + x45 + x46 + x48 + x50
      + x53 + x55 + x57 + x58 + x61 + x63 + x64 + x66 + x69 + x70 + x73 + x74
      + x77 + x79 + x80 + x83 + x85 + x87 + x89 + x91 + x93 + x95 + x96 + x99
      + x101 + x103 + x104 + x107 + x108 + x111 + x113 + x115 + x117 + x119
      + x120 + x123 + x125 + x126 + x129 + x131 + x133 + x135 + x137 + x138
      + x141 + x143 + x145 + x146 + x149 + x151 + x152 + x155 + x157 + x158
      + x161 + x162 + x164 + x166 + x168 + x170  = 1
 c6:  x1 + x4 + x6 + x8 + x10 + x12 + x15 + x17 + x18 + x21 + x23 + x25 + x27
      + x29 + x30 + x32 + x34 + x37 + x39 + x40 + x43 + x45 + x47 + x49 + x50
      + x52 + x54 + x57 + x58 + x60 + x63 + x65 + x67 + x69 + x70 + x73 + x74
      + x77 + x78 + x80 + x82 + x85 + x86 + x88 + x91 + x92 + x95 + x96 + x98
      + x101 + x103 + x105 + x107 + x108 + x110 + x113 + x115 + x117 + x119
      + x120 + x123 + x125 + x126 + x128 + x131 + x132 + x134 + x137 + x138
      + x141 + x143 + x145 + x146 + x148 + x150 + x152 + x155 + x157 + x158
      + x161 + x162 + x164 + x166 + x168 + x170  = 1
 c7:  x1 + x4 + x6 + x8 + x10 + x12 + x14 + x16 + x19 + x21 + x23 + x25 + x27
      + x29 + x30 + x33 + x34 + x36 + x39 + x40 + x42 + x45 + x46 + x48 + x50
      + x52 + x55 + x57 + x59 + x60 + x63 + x64 + x66 + x68 + x71 + x73 + x75
      + x77 + x79 + x80 + x82 + x84 + x86 + x88 + x91 + x92 + x95 + x97 + x98
      + x101 + x103 + x104 + x106 + x108 + x110 + x113 + x114 + x117 + x119
      + x120 + x123 + x125 + x126 + x128 + x130 + x132 + x134 + x136 + x138
      + x140 + x142 + x145 + x146 + x148 + x150 + x152 + x155 + x157 + x158
      + x161 + x162 + x164 + x166 + x168 + x170  = 1
 c8:  x1 + x4 + x6 + x8 + x10 + x12 + x14 + x16 + x18 + x20 + x23 + x25 + x26
      + x29 + x31 + x33 + x35 + x36 + x38 + x41 + x43 + x45 + x46 + x49 + x51
      + x53 + x55 + x57 + x59 + x60 + x62 + x64 + x66 + x69 + x70 + x73 + x74
      + x76 + x78 + x80 + x82 + x84 + x86 + x88 + x90 + x92 + x94 + x96 + x98
      + x100 + x102 + x104 + x106 + x108 + x110 + x113 + x114 + x117 + x118
      + x120 + x123 + x125 + x126 + x128 + x131 + x132 + x134 + x137 + x138
      + x140 + x143 + x145 + x146 + x148 + x150 + x152 + x155 + x157 + x158
      + x161 + x162 + x164 + x166 + x168 + x170  = 1
 c9:  x1 + x4 + x6 + x8 + x10 + x12 + x14 + x16 + x18 + x20 + x22 + x25 + x27
      + x28 + x30 + x33 + x35 + x36 + x39 + x41 + x43 + x45 + x46 + x49 + x50
      + x52 + x54 + x57 + x59 + x61 + x62 + x65 + x66 + x69 + x70 + x73 + x74
      + x77 + x78 + x81 + x83 + x85 + x86 + x88 + x91 + x93 + x95 + x96 + x98
      + x101 + x102 + x104 + x106 + x108 + x110 + x113 + x114 + x117 + x118
      + x120 + x123 + x125 + x126 + x128 + x131 + x133 + x134 + x137 + x138
      + x141 + x143 + x145 + x146 + x148 + x151 + x152 + x155 + x157 + x158
      + x161 + x162 + x164 + x166 + x168 + x170  = 1
 c10: x1 + x4 + x6 + x8 + x10 + x12 + x14 + x16 + x18 + x20 + x22 + x24 + x27
      + x29 + x31 + x33 + x35 + x37 + x39 + x40 + x43 + x45 + x47 + x49 + x51
      + x52 + x54 + x56 + x59 + x60 + x63 + x64 + x66 + x69 + x71 + x73 + x74
      + x77 + x79 + x81 + x82 + x85 + x86 + x89 + x90 + x93 + x95 + x96 + x98
      + x100 + x102 + x104 + x106 + x108 + x111 + x112 + x115 + x117 + x119
      + x121 + x122 + x125 + x126 + x128 + x130 + x132 + x134 + x137 + x138
      + x141 + x143 + x145 + x146 + x148 + x151 + x152 + x155 + x157 + x158
      + x160 + x162 + x164 + x166 + x169 + x171  = 1
 c11: x1 + x4 + x6 + x8 + x10 + x12 + x14 + x16 + x18 + x20 + x22 + x24 + x26
      + x28 + x30 + x32 + x34 + x37 + x39 + x41 + x43 + x45 + x46 + x48 + x51
      + x52 + x55 + x56 + x59 + x60 + x63 + x65 + x67 + x69 + x70 + x73 + x75
      + x76 + x79 + x81 + x83 + x85 + x87 + x89 + x91 + x93 + x95 + x96 + x98
      + x100 + x102 + x105 + x107 + x108 + x111 + x113 + x115 + x117 + x119
      + x121 + x122 + x125 + x127 + x129 + x131 + x133 + x135 + x137 + x139
      + x141 + x143 + x145 + x147 + x149 + x151 + x152 + x155 + x157 + x159
      + x160 + x163 + x164 + x166 + x169 + x171  = 1
 c12: x1 + x4 + x6 + x8 + x10 + x12 + x14 + x16 + x18 + x20 + x22 + x24 + x26
      + x28 + x30 + x32 + x34 + x37 + x38 + x40 + x42 + x45 + x46 + x48 + x51
      + x52 + x54 + x56 + x59 + x60 + x62 + x64 + x66 + x69 + x70 + x73 + x74
      + x76 + x79 + x81 + x82 + x85 + x86 + x89 + x90 + x93 + x95 + x96 + x98
      + x100 + x102 + x104 + x106 + x108 + x111 + x112 + x115 + x117 + x119
      + x121 + x122 + x125 + x126 + x128 + x130 + x132 + x134 + x137 + x138
      + x141 + x143 + x145 + x146 + x148 + x151 + x152 + x155 + x157 + x158
      + x160 + x162 + x164 + x166 + x169 + x171  = 1
 c13: x1 + x4 + x6 + x8 + x10 + x12 + x14 + x16 + x18 + x20 + x22 + x24 + x26
      + x28 + x30 + x32 + x34 + x37 + x38 + x40 + x42 + x45 + x46 + x48 + x51
      + x52 + x54 + x56 + x59 + x60 + x62 + x64 + x66 + x69 + x70 + x73 + x74
      + x76 + x79 + x81 + x82 + x85 + x86 + x89 + x90 + x93 + x95 + x96 + x98
      + x100 + x102 + x104 + x106 + x108 + x111 + x112 + x115 + x117 + x119
      + x121 + x122 + x125 + x126 + x128 + x130 + x132 + x134 + x137 + x138
      + x141 + x143 + x145 + x146 + x148 + x151 + x152 + x155 + x157 + x158
      + x160 + x162 + x164 + x166 + x169 + x171  = 1
 c14: x1 + x4 + x6 + x8 + x10 + x12 + x14 + x16 + x18 + x20 + x22 + x24 + x26
      + x28 + x30 + x32 + x34 + x36 + x38 + x40 + x42 + x44 + x46 + x49 + x50
      + x53 + x55 + x57 + x59 + x61 + x63 + x65 + x67 + x69 + x71 + x73 + x74
      + x76 + x78 + x80 + x83 + x84 + x86 + x88 + x91 + x92 + x94 + x97 + x99
      + x101 + x103 + x104 + x106 + x109 + x110 + x113 + x114 + x116 + x118
      + x121 + x123 + x124 + x126 + x128 + x130 + x132 + x134 + x136 + x138
      + x140 + x142 + x144 + x146 + x148 + x150 + x152 + x154 + x156 + x158
      + x161 + x162 + x164 + x166 + x169 + x171  = 1
 c15: x1 + x4 + x6 + x8 + x10 + x12 + x14 + x16 + x18 + x20 + x22 + x24 + x26
      + x28 + x30 + x32 + x34 + x36 + x38 + x40 + x42 + x44 + x46 + x48 + x50
      + x52 + x55 + x57 + x59 + x60 + x62 + x64 + x66 + x68 + x71 + x73 + x74
      + x76 + x78 + x80 + x82 + x84 + x86 + x88 + x91 + x92 + x94 + x97 + x98
      + x101 + x103 + x104 + x106 + x109 + x110 + x113 + x114 + x116 + x118
      + x121 + x123 + x124 + x126 + x128 + x130 + x132 + x134 + x136 + x138
      + x140 + x142 + x145 + x146 + x148 + x150 + x152 + x155 + x157 + x158
      + x161 + x162 + x164 + x166 + x169 + x171  = 1
 c16: x1 + x4 + x6 + x8 + x10 + x12 + x14 + x16 + x18 + x20 + x22 + x24 + x26
      + x28 + x30 + x32 + x34 + x36 + x38 + x40 + x42 + x44 + x46 + x48 + x50
      + x52 + x54 + x56 + x58 + x60 + x62 + x64 + x66 + x68 + x70 + x72 + x74
      + x76 + x78 + x80 + x82 + x84 + x86 + x88 + x90 + x92 + x94 + x96 + x98
      + x100 + x102 + x104 + x106 + x109 + x110 + x112 + x114 + x116 + x118
      + x121 + x123 + x124 + x126 + x128 + x130 + x132 + x134 + x136 + x138
      + x140 + x142 + x144 + x146 + x148 + x150 + x152 + x154 + x156 + x158
      + x161 + x162 + x164 + x166 + x169 + x171  = 1
 c17: x1 + x4 + x6 + x8 + x10 + x12 + x14 + x16 + x18 + x20 + x22 + x24 + x26
      + x28 + x30 + x32 + x34 + x36 + x38 + x40 + x42 + x44 + x46 + x48 + x50
      + x52 + x54 + x56 + x58 + x60 + x62 + x64 + x66 + x68 + x70 + x72 + x74
      + x76 + x78 + x80 + x82 + x84 + x86 + x88 + x90 + x92 + x94 + x96 + x98
      + x100 + x102 + x104 + x106 + x109 + x110 + x112 + x114 + x116 + x118
      + x121 + x123 + x124 + x126 + x128 + x130 + x132 + x134 + x136 + x138
      + x140 + x142 + x144 + x146 + x148 + x150 + x152 + x154 + x156 + x158
      + x161 + x162 + x164 + x166 + x169 + x171  = 1
 c18: x1 + x4 + x6 + x8 + x10 + x12 + x14 + x16 + x18 + x20 + x22 + x24 + x26
      + x28 + x30 + x32 + x34 + x36 + x38 + x40 + x42 + x44 + x46 + x48 + x50
      + x52 + x54 + x56 + x58 + x60 + x62 + x64 + x66 + x68 + x70 + x72 + x74
      + x76 + x78 + x80 + x82 + x84 + x86 + x88 + x90 + x92 + x94 + x96 + x98
      + x100 + x102 + x104 + x106 + x109 + x110 + x112 + x114 + x116 + x118
      + x121 + x123 + x124 + x126 + x128 + x130 + x132 + x134 + x136 + x138
      + x140 + x142 + x144 + x146 + x148 + x150 + x152 + x154 + x156 + x158
      + x161 + x162 + x164 + x166 + x169 + x171  = 1
 c19: x1 + x4 + x6 + x8 + x10 + x12 + x14 + x16 + x18 + x20 + x22 + x24 + x26
      + x28 + x30 + x32 + x34 + x36 + x38 + x40 + x42 + x44 + x46 + x48 + x50
      + x52 + x54 + x56 + x58 + x60 + x62 + x64 + x66 + x68 + x70 + x72 + x74
      + x76 + x78 + x80 + x82 + x84 + x86 + x88 + x90 + x92 + x94 + x96 + x98
      + x100 + x102 + x104 + x106 + x109 + x110 + x112 + x114 + x116 + x118
      + x121 + x123 + x124 + x126 + x128 + x130 + x132 + x134 + x136 + x138
      + x140 + x142 + x144 + x146 + x148 + x150 + x152 + x154 + x156 + x158
      + x161 + x162 + x164 + x166 + x169 + x171  = 1
 c20: x1 + x4 + x6 + x8 + x10 + x12 + x14 + x16 + x18 + x20 + x22 + x24 + x26
      + x28 + x30 + x32 + x34 + x36 + x38 + x40 + x42 + x44 + x46 + x48 + x50
      + x52 + x54 + x56 + x58 + x60 + x62 + x64 + x66 + x68 + x70 + x72 + x74
      + x76 + x78 + x80 + x82 + x84 + x86 + x88 + x90 + x92 + x94 + x96 + x98
      + x100 + x102 + x104 + x106 + x109 + x110 + x112 + x114 + x116 + x118
      + x121 + x123 + x124 + x126 + x128 + x130 + x132 + x134 + x136 + x138
      + x140 + x142 + x144 + x146 + x148 + x150 + x152 + x154 + x156 + x158
      + x161 + x162 + x164 + x166 + x169 + x171  = 1
 c21: x1 + x4 + x6 + x8 + x10 + x12 + x14 + x16 + x18 + x20 + x22 + x24 + x26
      + x28 + x30 + x32 + x34 + x36 + x38 + x40 + x42 + x44 + x46 + x48 + x50
      + x52 + x54 + x56 + x58 + x60 + x62 + x64 + x66 + x68 + x70 + x72 + x74
      + x76 + x78 + x80 + x82 + x84 + x86 + x88 + x90 + x92 + x94 + x96 + x98
      + x100 + x102 + x104 + x106 + x109 + x110 + x112 + x114 + x116 + x118
      + x121 + x123 + x124 + x126 + x128 + x130 + x132 + x134 + x136 + x138
      + x140 + x142 + x144 + x146 + x148 + x150 + x152 + x154 + x156 + x158
      + x161 + x162 + x164 + x166 + x169 + x171  = 1
 c22: x1 + x4 + x6 + x8 + x10 + x12 + x14 + x16 + x18 + x20 + x22 + x24 + x26
      + x28 + x30 + x32 + x34 + x36 + x38 + x40 + x42 + x44 + x46 + x48 + x50
      + x52 + x54 + x56 + x58 + x60 + x62 + x64 + x66 + x68 + x70 + x72 + x74
      + x76 + x78 + x80 + x82 + x84 + x86 + x88 + x90 + x92 + x94 + x96 + x98
      + x100 + x102 + x104 + x106 + x109 + x110 + x112 + x114 + x116 + x118
      + x121 + x123 + x124 + x126 + x128 + x130 + x132 + x134 + x136 + x138
      + x140 + x142 + x144 + x146 + x148 + x150 + x152 + x154 + x156 + x158
      + x161 + x162 + x164 + x166 + x169 + x171  = 1
 c23: x1 + x4 + x6 + x8 + x10 + x12 + x14 + x16 + x18 + x20 + x22 + x24 + x26
      + x28 + x30 + x32 + x34 + x36 + x38 + x40 + x42 + x44 + x46 + x48 + x50
      + x52 + x54 + x56 + x58 + x60 + x62 + x64 + x66 + x68 + x70 + x72 + x74
      + x76 + x78 + x80 + x82 + x84 + x86 + x88 + x90 + x92 + x94 + x96 + x98
      + x100 + x102 + x104 + x106 + x109 + x110 + x112 + x114 + x116 + x118
      + x121 + x123 + x124 + x126 + x128 + x130 + x132 + x134 + x136 + x138
      + x140 + x142 + x144 + x146 + x148 + x150 + x152 + x154 + x156 + x158
      + x161 + x162 + x164 + x166 + x169 + x171  = 1
 c24: x1 + x4 + x6 + x8 + x10 + x12 + x14 + x16 + x18 + x20 + x22 + x24 + x26
      + x28 + x30 + x32 + x34 + x36 + x38 + x40 + x42 + x44 + x46 + x48 + x50
      + x52 + x54 + x56 + x58 + x60 + x62 + x64 + x66 + x68 + x70 + x72 + x74
      + x76 + x78 + x80 + x82 + x84 + x86 + x88 + x90 + x92 + x94 + x96 + x98
      + x100 + x102 + x104 + x106 + x109 + x110 + x112 + x114 + x116 + x118
      + x121 + x123 + x124 + x126 + x128 + x130 + x132 + x134 + x136 + x138
      + x140 + x142 + x144 + x146 + x148 + x150 + x152 + x154 + x156 + x158
      + x161 + x162 + x164 + x166 + x169 + x171  = 1
 c25: x1 + x3 + x4 + x5 + x6 + x7 + x8 + x9 + x10 + x11 + x12 + x13 + x14 + x15
      + x16 + x17 + x18 + x19 + x20 + x21 + x22 + x23 + x24 + x25 + x26 + x27
      + x28 + x29 + x30 + x31 + x32 + x33 + x34 + x35 + x36 + x37 + x38 + x39
      + x40 + x41 + x42 + x43 + x44 + x45 + x46 + x47 + x48 + x49 + x50 + x51
      + x52 + x53 + x54 + x55 + x56 + x57 + x58 + x59 + x60 + x61 + x62 + x63
      + x64 + x65 + x66 + x67 + x68 + x69 + x70 + x71 + x72 + x73 + x74 + x75
      + x76 + x77 + x78 + x79 + x80 + x81 + x82 + x83 + x84 + x85 + x86 + x87
      + x88 + x89 + x90 + x91 + x92 + x93 + x94 + x95 + x96 + x97 + x98 + x99
      + x100 + x101 + x102 + x103 + x104 + x105 + x106 + x107 + x108 + x109
      + x110 + x111 + x112 + x113 + x114 + x115 + x116 + x117 + x118 + x119
      + x120 + x121 + x122 + x123 + x124 + x125 + x126 + x127 + x128 + x129
      + x130 + x131 + x132 + x133 + x134 + x135 + x136 + x137 + x138 + x139
      + x140 + x141 + x142 + x143 + x144 + x145 + x146 + x147 + x148 + x149
      + x150 + x151 + x152 + x153 + x154 + x155 + x156 + x157 + x158 + x159
      + x160 + x161 + x162 + x163 + x164 + x165 + x166 + x167 + x168 + x169
      + x170 + x171  = 2
Bounds
      x2 = 0
End
